NAME: PointSet_Angle_20_9
TYPE: TSP
COMMENT: Points chosen discrete uniformly at random out of ${0, \ldots, 500}^2$.
DIMENSION: 20
EDGE_WEIGHT_TYPE: EUC_2D
NODE_COORD_SECTION
1 282 333
2 386 88
3 250 433
4 4 74
5 374 438
6 111 215
7 65 369
8 27 401
9 112 134
10 434 279
11 493 312
12 206 76
13 143 399
14 359 228
15 269 324
16 328 297
17 404 214
18 385 400
19 393 390
20 474 266
EOF
